;; Proof obligation:
;;	ASSUME NEW CONSTANT CST_N_,
;;	       NEW VARIABLE VAR_active_,
;;	       NEW VARIABLE VAR_color_,
;;	       NEW VARIABLE VAR_tpos_,
;;	       NEW VARIABLE VAR_tcolor_,
;;	       ASSUME NEW CONSTANT CST_i_ \in CST_Nodes_
;;	       PROVE  ~VAR_active_[CST_i_] 
;;	PROVE  \A CST_i_ \in CST_Nodes_ : ~VAR_active_[CST_i_]
;; TLA+ Proof Manager 1.5.0
;; Proof obligation #47
;; Generated from file "./examples/EWD840.tla", line 209, characters 5-26

(set-logic UFNIA)

;; Sorts

(declare-sort Idv 0)

;; Hypotheses

(declare-fun FunApp (Idv Idv) Idv)

(declare-fun FunDom (Idv) Idv)

; omitted declaration of '_FunFcn' (second-order)

(declare-fun FunIsafcn (Idv) Bool)

(declare-fun Mem (Idv Idv) Bool)

(declare-fun SetExtTrigger (Idv Idv) Bool)

(declare-fun Tt_Idv () Idv)

;; Axiom: SetExt
(assert
  (!
    (forall ((smt__x Idv) (smt__y Idv))
      (!
        (=>
          (forall ((smt__z Idv))
            (= (Mem smt__z smt__x)
              (Mem smt__z smt__y)))
          (= smt__x smt__y))
        :pattern ((SetExtTrigger smt__x smt__y))))
    :named |SetExt|))

;; Axiom: FunExt
(assert
  (!
    (forall ((smt__f Idv) (smt__g Idv))
      (!
        (=>
          (and (FunIsafcn smt__f)
            (FunIsafcn smt__g)
            (= (FunDom smt__f)
              (FunDom smt__g))
            (forall ((smt__x Idv))
              (=>
                (Mem smt__x
                  (FunDom smt__f))
                (= (FunApp smt__f smt__x)
                  (FunApp smt__g smt__x)))))
          (= smt__f smt__g))
        :pattern ((FunIsafcn smt__f)
                   (FunIsafcn smt__g))))
    :named |FunExt|))

; omitted fact (second-order)

; omitted fact (second-order)

; omitted fact (second-order)

; hidden fact

; hidden fact

; omitted declaration of 'CST_EnabledWrapper_' (second-order)

; omitted declaration of 'CST_CdotWrapper_' (second-order)

(declare-fun CST_N_ () Idv)

; hidden fact

(declare-fun VAR_active_ () Idv)

(declare-fun VAR_active_prime () Idv)

(declare-fun VAR_color_ () Idv)

(declare-fun VAR_color_prime () Idv)

(declare-fun VAR_tpos_ () Idv)

(declare-fun VAR_tpos_prime () Idv)

(declare-fun VAR_tcolor_ () Idv)

(declare-fun VAR_tcolor_prime () Idv)

(declare-fun CST_Nodes_ () Idv)

(declare-fun CST_Color_ () Idv)

(declare-fun STATE_TypeOK_ () Idv)

(declare-fun STATE_Init_ () Idv)

(declare-fun ACTION_InitiateProbe_ () Idv)

(declare-fun ACTION_PassToken_ (Idv) Idv)

(declare-fun ACTION_SendMsg_ (Idv) Idv)

(declare-fun ACTION_Deactivate_ (Idv) Idv)

(declare-fun ACTION_Controlled_ () Idv)

(declare-fun ACTION_Environment_ () Idv)

(declare-fun ACTION_Next_ () Idv)

(declare-fun STATE_vars_ () Idv)

(declare-fun TEMPORAL_Fairness_ () Idv)

(declare-fun TEMPORAL_Spec_ () Idv)

(declare-fun STATE_NeverBlack_ () Idv)

(declare-fun TEMPORAL_NeverChangeColor_ () Idv)

(declare-fun STATE_terminationDetected_ () Idv)

(declare-fun STATE_TerminationDetection_ () Idv)

(declare-fun TEMPORAL_Liveness_ () Idv)

(declare-fun TEMPORAL_AllNodesTerminateIfNoMessages_ () Idv)

(declare-fun STATE_Inv_ () Idv)

; hidden fact

; hidden fact

; hidden fact

; hidden fact

; hidden fact

; hidden fact

; hidden fact

; hidden fact

; hidden fact

; hidden fact

; hidden fact

; hidden fact

; hidden fact

(assert
  (forall ((CST_i_ Idv))
    (=>
      (Mem CST_i_
        CST_Nodes_)
      (not
        (=
          (FunApp
            VAR_active_
            CST_i_)
          Tt_Idv)))))

;; Goal
(assert
  (!
    (not
      (forall ((CST_i_ Idv))
        (=>
          (Mem
            CST_i_
            CST_Nodes_)
          (not
            (=
              (FunApp
                VAR_active_
                CST_i_)
              Tt_Idv)))))
    :named |Goal|))

(check-sat)
(exit)
